data/solutions/recovery/degenerate/intermediate/binding/degenerate_intermediate_instance37/25.sol
Elapsed time: 0.04
Upper bound: 215536.0
Planning weighted value: 8593307161.0
C[0]=215536.0
C[1]=203380.0
C[2]=201026.0
C[3]=190661.0
C[4]=185150.0
C[5]=184772.0
C[6]=172824.0
C[7]=169790.0
C[8]=130270.0
C[9]=129353.0
C[10]=128779.0
C[11]=127071.0
C[12]=125736.0
C[13]=125660.0
C[14]=0.0
C[15]=0.0
y[0]=13
y[1]=11
y[2]=2
y[3]=3
y[4]=11
y[5]=12
y[6]=12
y[7]=5
y[8]=3
y[9]=4
y[10]=13
y[11]=1
y[12]=4
y[13]=7
y[14]=1
y[15]=6
y[16]=1
y[17]=4
y[18]=13
y[19]=10
y[20]=4
y[21]=2
y[22]=9
y[23]=8
y[24]=8
y[25]=7
y[26]=4
y[27]=7
y[28]=5
y[29]=7
y[30]=4
y[31]=8
y[32]=2
y[33]=12
y[34]=8
y[35]=2
y[36]=5
y[37]=11
y[38]=13
y[39]=1
y[40]=11
y[41]=5
y[42]=0
y[43]=6
y[44]=0
y[45]=8
y[46]=10
y[47]=10
y[48]=0
y[49]=8
y[50]=6
y[51]=3
y[52]=10
y[53]=5
y[54]=5
y[55]=2
y[56]=9
y[57]=9
y[58]=3
y[59]=2
y[60]=2
y[61]=1
y[62]=3
y[63]=6
y[64]=0
